\ LP format - for model browsing. Use MPS format to capture full model detail.
Maximize
  - 99968.53696906136 ICU-Bounces[0,age_group_0_9]
   - 99968.53696906136 ICU-Bounces[0,age_group_10_19]
   - 99942.31777661249 ICU-Bounces[0,age_group_20_29]
   - 99900.36706869428 ICU-Bounces[0,age_group_30_39]
   - 99826.95332983744 ICU-Bounces[0,age_group_40_49]
   - 99659.15049816466 ICU-Bounces[0,age_group_50_59]
   - 99339.2763502884 ICU-Bounces[0,age_group_60_69]
   - 98898.79391714736 ICU-Bounces[0,age_group_70_79]
   - 98342.94703723125 ICU-Bounces[0,age_group_80_plus]
   - 99968.53696906136 ICU-Bounces[1,age_group_0_9]
   - 99968.53696906136 ICU-Bounces[1,age_group_10_19]
   - 99942.31777661249 ICU-Bounces[1,age_group_20_29]
   - 99900.36706869428 ICU-Bounces[1,age_group_30_39]
   - 99826.95332983744 ICU-Bounces[1,age_group_40_49]
   - 99659.15049816466 ICU-Bounces[1,age_group_50_59]
   - 99339.2763502884 ICU-Bounces[1,age_group_60_69]
   - 98898.79391714736 ICU-Bounces[1,age_group_70_79]
   - 98342.94703723125 ICU-Bounces[1,age_group_80_plus]
   - 99968.53696906136 ICU-Bounces[2,age_group_0_9]
   - 99968.53696906136 ICU-Bounces[2,age_group_10_19]
   - 99942.31777661249 ICU-Bounces[2,age_group_20_29]
   - 99900.36706869428 ICU-Bounces[2,age_group_30_39]
   - 99826.95332983744 ICU-Bounces[2,age_group_40_49]
   - 99659.15049816466 ICU-Bounces[2,age_group_50_59]
   - 99339.2763502884 ICU-Bounces[2,age_group_60_69]
   - 98898.79391714736 ICU-Bounces[2,age_group_70_79]
   - 98342.94703723125 ICU-Bounces[2,age_group_80_plus]
   - 100000 ICU-Bounces[3,age_group_0_9]
   - 100000 ICU-Bounces[3,age_group_10_19]
   - 100000 ICU-Bounces[3,age_group_20_29]
   - 100000 ICU-Bounces[3,age_group_30_39]
   - 100000 ICU-Bounces[3,age_group_40_49]
   - 100000 ICU-Bounces[3,age_group_50_59]
   - 100000 ICU-Bounces[3,age_group_60_69]
   - 100000 ICU-Bounces[3,age_group_70_79]
   - 100000 ICU-Bounces[3,age_group_80_plus]
   - 99954.23340961098 H-Bounces[0,age_group_0_9]
   - 99954.23340961098 H-Bounces[0,age_group_10_19]
   - 99916.09458428681 H-Bounces[0,age_group_20_29]
   - 99855.07246376811 H-Bounces[0,age_group_30_39]
   - 99748.28375286041 H-Bounces[0,age_group_40_49]
   - 99504.19527078565 H-Bounces[0,age_group_50_59]
   - 99038.90160183066 H-Bounces[0,age_group_60_69]
   - 98398.16933638444 H-Bounces[0,age_group_70_79]
   - 97589.62623951182 H-Bounces[0,age_group_80_plus]
   - 99954.23340961098 H-Bounces[1,age_group_0_9]
   - 99954.23340961098 H-Bounces[1,age_group_10_19]
   - 99916.09458428681 H-Bounces[1,age_group_20_29]
   - 99855.07246376811 H-Bounces[1,age_group_30_39]
   - 99748.28375286041 H-Bounces[1,age_group_40_49]
   - 99504.19527078565 H-Bounces[1,age_group_50_59]
   - 99038.90160183066 H-Bounces[1,age_group_60_69]
   - 98398.16933638444 H-Bounces[1,age_group_70_79]
   - 97589.62623951182 H-Bounces[1,age_group_80_plus]
   - 99954.23340961098 H-Bounces[2,age_group_0_9]
   - 99954.23340961098 H-Bounces[2,age_group_10_19]
   - 99916.09458428681 H-Bounces[2,age_group_20_29]
   - 99855.07246376811 H-Bounces[2,age_group_30_39]
   - 99748.28375286041 H-Bounces[2,age_group_40_49]
   - 99504.19527078565 H-Bounces[2,age_group_50_59]
   - 99038.90160183066 H-Bounces[2,age_group_60_69]
   - 98398.16933638444 H-Bounces[2,age_group_70_79]
   - 97589.62623951182 H-Bounces[2,age_group_80_plus]
   - 100000 H-Bounces[3,age_group_0_9]
   - 100000 H-Bounces[3,age_group_10_19]
   - 100000 H-Bounces[3,age_group_20_29]
   - 100000 H-Bounces[3,age_group_30_39]
   - 100000 H-Bounces[3,age_group_40_49]
   - 100000 H-Bounces[3,age_group_50_59]
   - 100000 H-Bounces[3,age_group_60_69]
   - 100000 H-Bounces[3,age_group_70_79]
   - 100000 H-Bounces[3,age_group_80_plus]
   + 0.6552899862887237 a-tests[0,age_group_20_29]
   + 0.6567316139259294 a-tests[0,age_group_30_39]
   + 0.2191898559572572 a-tests[0,age_group_40_49]
   + 0.6718822728429488 a-tests[1,age_group_20_29]
   + 0.6760924049445318 a-tests[1,age_group_30_39]
   + 0.2193164881827734 a-tests[1,age_group_40_49]
   + 0.692083855089383 a-tests[2,age_group_20_29]
   + 0.6909270636950007 a-tests[2,age_group_30_39]
   + 0.2200187458958816 a-tests[2,age_group_40_49]
   - 2.22045e-16 a-tests[2,age_group_60_69]
   + 7.63914e-05 m-tests[0,age_group_0_9]
   + 7.79379e-05 m-tests[0,age_group_10_19]
   + 0.00600773600188272 m-tests[0,age_group_20_29]
   - 0.0843841883329497 m-tests[0,age_group_30_39]
   - 0.1319599955447382 m-tests[0,age_group_40_49]
   - 0.0756147414580053 m-tests[0,age_group_50_59]
   + 0.0254956463507676 m-tests[0,age_group_60_69]
   + 0.0741240467569045 m-tests[0,age_group_70_79]
   + 0.1294163219151486 m-tests[0,age_group_80_plus]
   - 5.42101e-20 m-tests[1,age_group_0_9]
   - 6.77626e-19 m-tests[1,age_group_10_19]
   + 0.0222503081596311 m-tests[1,age_group_20_29]
   + 0.0203618783527769 m-tests[1,age_group_30_39]
   + 0.00210399148963764 m-tests[1,age_group_40_49]
   + 1.38778e-17 m-tests[1,age_group_50_59]
   - 2.77556e-17 m-tests[1,age_group_70_79]
   + 2.0257521425112224e+09 Constant
Subject To
 HCAP[0]: - H-Bounces[0,age_group_0_9] - H-Bounces[0,age_group_10_19]
   - H-Bounces[0,age_group_20_29] - H-Bounces[0,age_group_30_39]
   - H-Bounces[0,age_group_40_49] - H-Bounces[0,age_group_50_59]
   - H-Bounces[0,age_group_60_69] - H-Bounces[0,age_group_70_79]
   - H-Bounces[0,age_group_80_plus] <= 1.9995958775874238e+07
 HCAP[1]: - 0.92372234935164 H-Bounces[0,age_group_0_9]
   - 0.92372234935164 H-Bounces[0,age_group_10_19]
   - 0.92372234935164 H-Bounces[0,age_group_20_29]
   - 0.9237223493516399 H-Bounces[0,age_group_30_39]
   - 0.92372234935164 H-Bounces[0,age_group_40_49]
   - 0.9237223493516399 H-Bounces[0,age_group_50_59]
   - 0.92372234935164 H-Bounces[0,age_group_60_69]
   - 0.92372234935164 H-Bounces[0,age_group_70_79]
   - 0.92372234935164 H-Bounces[0,age_group_80_plus]
   - H-Bounces[1,age_group_0_9] - H-Bounces[1,age_group_10_19]
   - H-Bounces[1,age_group_20_29] - H-Bounces[1,age_group_30_39]
   - H-Bounces[1,age_group_40_49] - H-Bounces[1,age_group_50_59]
   - H-Bounces[1,age_group_60_69] - H-Bounces[1,age_group_70_79]
   - H-Bounces[1,age_group_80_plus] + 5.58167e-06 m-tests[0,age_group_0_9]
   + 5.69466e-06 m-tests[0,age_group_10_19]
   + 1.83869e-05 m-tests[0,age_group_20_29]
   + 6.38436e-05 m-tests[0,age_group_30_39]
   + 6.9532e-05 m-tests[0,age_group_40_49]
   + 1.0660444247959666e-04 m-tests[0,age_group_50_59]
   + 1.2356614664775847e-04 m-tests[0,age_group_60_69]
   + 1.5073949593050911e-04 m-tests[0,age_group_70_79]
   + 2.063502026380651e-04 m-tests[0,age_group_80_plus]
   <= 1.9995988477162167e+07
 HCAP[2]: - 0.92372234935164 H-Bounces[1,age_group_0_9]
   - 0.92372234935164 H-Bounces[1,age_group_10_19]
   - 0.92372234935164 H-Bounces[1,age_group_20_29]
   - 0.9237223493516399 H-Bounces[1,age_group_30_39]
   - 0.92372234935164 H-Bounces[1,age_group_40_49]
   - 0.9237223493516399 H-Bounces[1,age_group_50_59]
   - 0.92372234935164 H-Bounces[1,age_group_60_69]
   - 0.92372234935164 H-Bounces[1,age_group_70_79]
   - 0.92372234935164 H-Bounces[1,age_group_80_plus]
   - H-Bounces[2,age_group_0_9] - H-Bounces[2,age_group_10_19]
   - H-Bounces[2,age_group_20_29] - H-Bounces[2,age_group_30_39]
   - H-Bounces[2,age_group_40_49] - H-Bounces[2,age_group_50_59]
   - H-Bounces[2,age_group_60_69] - H-Bounces[2,age_group_70_79]
   - H-Bounces[2,age_group_80_plus] - 1.39542e-06 m-tests[0,age_group_0_9]
   - 1.42367e-06 m-tests[0,age_group_10_19]
   - 4.59672e-06 m-tests[0,age_group_20_29]
   - 1.59609e-05 m-tests[0,age_group_30_39]
   - 1.7383e-05 m-tests[0,age_group_40_49]
   - 2.66511e-05 m-tests[0,age_group_50_59]
   - 3.08915e-05 m-tests[0,age_group_60_69]
   - 3.76849e-05 m-tests[0,age_group_70_79]
   - 5.15876e-05 m-tests[0,age_group_80_plus]
   + 5.53686e-06 m-tests[1,age_group_0_9]
   + 5.64185e-06 m-tests[1,age_group_10_19]
   + 1.83046e-05 m-tests[1,age_group_20_29]
   + 6.33783e-05 m-tests[1,age_group_30_39]
   + 6.90089e-05 m-tests[1,age_group_40_49]
   + 1.0532630124901899e-04 m-tests[1,age_group_50_59]
   + 1.2292768721912183e-04 m-tests[1,age_group_60_69]
   + 1.47316151318056e-04 m-tests[1,age_group_70_79]
   + 2.4465618908353875e-04 m-tests[1,age_group_80_plus]
   <= 1.9996005757332277e+07
 HCAP[3]: - 0.92372234935164 H-Bounces[2,age_group_0_9]
   - 0.92372234935164 H-Bounces[2,age_group_10_19]
   - 0.92372234935164 H-Bounces[2,age_group_20_29]
   - 0.9237223493516399 H-Bounces[2,age_group_30_39]
   - 0.92372234935164 H-Bounces[2,age_group_40_49]
   - 0.9237223493516399 H-Bounces[2,age_group_50_59]
   - 0.92372234935164 H-Bounces[2,age_group_60_69]
   - 0.92372234935164 H-Bounces[2,age_group_70_79]
   - 0.92372234935164 H-Bounces[2,age_group_80_plus]
   - H-Bounces[3,age_group_0_9] - H-Bounces[3,age_group_10_19]
   - H-Bounces[3,age_group_20_29] - H-Bounces[3,age_group_30_39]
   - H-Bounces[3,age_group_40_49] - H-Bounces[3,age_group_50_59]
   - H-Bounces[3,age_group_60_69] - H-Bounces[3,age_group_70_79]
   - H-Bounces[3,age_group_80_plus] - 2.33554e-06 m-tests[0,age_group_0_9]
   - 2.38282e-06 m-tests[0,age_group_10_19]
   - 7.69364e-06 m-tests[0,age_group_20_29]
   - 2.67141e-05 m-tests[0,age_group_30_39]
   - 2.90943e-05 m-tests[0,age_group_40_49]
   - 4.46066e-05 m-tests[0,age_group_50_59]
   - 5.17039e-05 m-tests[0,age_group_60_69]
   - 6.3074e-05 m-tests[0,age_group_70_79]
   - 8.63432e-05 m-tests[0,age_group_80_plus]
   - 1.38421e-06 m-tests[1,age_group_0_9]
   - 1.41046e-06 m-tests[1,age_group_10_19]
   - 4.57615e-06 m-tests[1,age_group_20_29]
   - 1.58446e-05 m-tests[1,age_group_30_39]
   - 1.72522e-05 m-tests[1,age_group_40_49]
   - 2.63316e-05 m-tests[1,age_group_50_59]
   - 3.07319e-05 m-tests[1,age_group_60_69]
   - 3.6829e-05 m-tests[1,age_group_70_79]
   - 6.1164e-05 m-tests[1,age_group_80_plus]
   + 5.54456e-06 m-tests[2,age_group_0_9]
   + 5.60235e-06 m-tests[2,age_group_10_19]
   + 1.79506e-05 m-tests[2,age_group_20_29]
   + 6.2813e-05 m-tests[2,age_group_30_39]
   + 6.84225e-05 m-tests[2,age_group_40_49]
   + 1.0407527491108014e-04 m-tests[2,age_group_50_59]
   + 1.2221837597004378e-04 m-tests[2,age_group_60_69]
   + 1.4391433244522687e-04 m-tests[2,age_group_70_79]
   + 2.686344189183068e-04 m-tests[2,age_group_80_plus]
   <= 1.9996017411577534e+07
 ICUCAP[0]: - H-Bounces[0,age_group_0_9] - H-Bounces[0,age_group_10_19]
   - H-Bounces[0,age_group_20_29] - H-Bounces[0,age_group_30_39]
   - H-Bounces[0,age_group_40_49] - H-Bounces[0,age_group_50_59]
   - H-Bounces[0,age_group_60_69] - H-Bounces[0,age_group_70_79]
   - H-Bounces[0,age_group_80_plus] <= 1.9998416314521842e+07
 ICUCAP[1]: - 0.9475616151022548 ICU-Bounces[0,age_group_0_9]
   - 0.9475616151022548 ICU-Bounces[0,age_group_10_19]
   - 0.9475616151022548 ICU-Bounces[0,age_group_20_29]
   - 0.9475616151022549 ICU-Bounces[0,age_group_30_39]
   - 0.9475616151022549 ICU-Bounces[0,age_group_40_49]
   - 0.9475616151022549 ICU-Bounces[0,age_group_50_59]
   - 0.9475616151022548 ICU-Bounces[0,age_group_60_69]
   - 0.9475616151022549 ICU-Bounces[0,age_group_70_79]
   - 0.9475616151022549 ICU-Bounces[0,age_group_80_plus]
   - H-Bounces[1,age_group_0_9] - H-Bounces[1,age_group_10_19]
   - H-Bounces[1,age_group_20_29] - H-Bounces[1,age_group_30_39]
   - H-Bounces[1,age_group_40_49] - H-Bounces[1,age_group_50_59]
   - H-Bounces[1,age_group_60_69] - H-Bounces[1,age_group_70_79]
   - H-Bounces[1,age_group_80_plus] + 1.59271e-06 m-tests[0,age_group_0_9]
   + 1.62496e-06 m-tests[0,age_group_10_19]
   + 2.38926e-06 m-tests[0,age_group_20_29]
   + 1.20703e-05 m-tests[0,age_group_30_39]
   + 1.98408e-05 m-tests[0,age_group_40_49]
   + 4.06393e-05 m-tests[0,age_group_50_59]
   + 5.49976e-05 m-tests[0,age_group_60_69]
   + 4.99789e-05 m-tests[0,age_group_70_79]
   + 1.22411e-05 m-tests[0,age_group_80_plus] <= 1.9998421148133911e+07
 ICUCAP[2]: - 0.9475616151022548 ICU-Bounces[1,age_group_0_9]
   - 0.9475616151022548 ICU-Bounces[1,age_group_10_19]
   - 0.9475616151022548 ICU-Bounces[1,age_group_20_29]
   - 0.9475616151022549 ICU-Bounces[1,age_group_30_39]
   - 0.9475616151022549 ICU-Bounces[1,age_group_40_49]
   - 0.9475616151022549 ICU-Bounces[1,age_group_50_59]
   - 0.9475616151022548 ICU-Bounces[1,age_group_60_69]
   - 0.9475616151022549 ICU-Bounces[1,age_group_70_79]
   - 0.9475616151022549 ICU-Bounces[1,age_group_80_plus]
   - H-Bounces[2,age_group_0_9] - H-Bounces[2,age_group_10_19]
   - H-Bounces[2,age_group_20_29] - H-Bounces[2,age_group_30_39]
   - H-Bounces[2,age_group_40_49] - H-Bounces[2,age_group_50_59]
   - H-Bounces[2,age_group_60_69] - H-Bounces[2,age_group_70_79]
   - H-Bounces[2,age_group_80_plus] - 3.98178e-07 m-tests[0,age_group_0_9]
   - 4.06239e-07 m-tests[0,age_group_10_19]
   - 5.97314e-07 m-tests[0,age_group_20_29]
   - 3.01758e-06 m-tests[0,age_group_30_39]
   - 4.96019e-06 m-tests[0,age_group_40_49]
   - 1.01598e-05 m-tests[0,age_group_50_59]
   - 1.37494e-05 m-tests[0,age_group_60_69]
   - 1.24947e-05 m-tests[0,age_group_70_79]
   - 3.06028e-06 m-tests[0,age_group_80_plus]
   + 1.57993e-06 m-tests[1,age_group_0_9]
   + 1.60988e-06 m-tests[1,age_group_10_19]
   + 2.37856e-06 m-tests[1,age_group_20_29]
   + 1.19823e-05 m-tests[1,age_group_30_39]
   + 1.96915e-05 m-tests[1,age_group_40_49]
   + 4.0152e-05 m-tests[1,age_group_50_59]
   + 5.47135e-05 m-tests[1,age_group_60_69]
   + 4.88438e-05 m-tests[1,age_group_70_79]
   + 1.45135e-05 m-tests[1,age_group_80_plus] <= 1.9998423381263126e+07
 ICUCAP[3]: - 0.9475616151022548 ICU-Bounces[2,age_group_0_9]
   - 0.9475616151022548 ICU-Bounces[2,age_group_10_19]
   - 0.9475616151022548 ICU-Bounces[2,age_group_20_29]
   - 0.9475616151022549 ICU-Bounces[2,age_group_30_39]
   - 0.9475616151022549 ICU-Bounces[2,age_group_40_49]
   - 0.9475616151022549 ICU-Bounces[2,age_group_50_59]
   - 0.9475616151022548 ICU-Bounces[2,age_group_60_69]
   - 0.9475616151022549 ICU-Bounces[2,age_group_70_79]
   - 0.9475616151022549 ICU-Bounces[2,age_group_80_plus]
   - H-Bounces[3,age_group_0_9] - H-Bounces[3,age_group_10_19]
   - H-Bounces[3,age_group_20_29] - H-Bounces[3,age_group_30_39]
   - H-Bounces[3,age_group_40_49] - H-Bounces[3,age_group_50_59]
   - H-Bounces[3,age_group_60_69] - H-Bounces[3,age_group_70_79]
   - H-Bounces[3,age_group_80_plus] - 6.75932e-07 m-tests[0,age_group_0_9]
   - 6.89616e-07 m-tests[0,age_group_10_19]
   - 1.01398e-06 m-tests[0,age_group_20_29]
   - 5.12252e-06 m-tests[0,age_group_30_39]
   - 8.42023e-06 m-tests[0,age_group_40_49]
   - 1.72469e-05 m-tests[0,age_group_50_59]
   - 2.33405e-05 m-tests[0,age_group_60_69]
   - 2.12106e-05 m-tests[0,age_group_70_79]
   - 5.19501e-06 m-tests[0,age_group_80_plus]
   - 3.94981e-07 m-tests[1,age_group_0_9]
   - 4.02471e-07 m-tests[1,age_group_10_19]
   - 5.9464e-07 m-tests[1,age_group_20_29]
   - 2.99558e-06 m-tests[1,age_group_30_39]
   - 4.92287e-06 m-tests[1,age_group_40_49]
   - 1.0038e-05 m-tests[1,age_group_50_59]
   - 1.36784e-05 m-tests[1,age_group_60_69]
   - 1.2211e-05 m-tests[1,age_group_70_79]
   - 3.62838e-06 m-tests[1,age_group_80_plus]
   + 1.58212e-06 m-tests[2,age_group_0_9]
   + 1.59861e-06 m-tests[2,age_group_10_19]
   + 2.33257e-06 m-tests[2,age_group_20_29]
   + 1.18755e-05 m-tests[2,age_group_30_39]
   + 1.95242e-05 m-tests[2,age_group_40_49]
   + 3.96751e-05 m-tests[2,age_group_50_59]
   + 5.43978e-05 m-tests[2,age_group_60_69]
   + 4.77159e-05 m-tests[2,age_group_70_79]
   + 1.59359e-05 m-tests[2,age_group_80_plus] <= 1.999842535708062e+07
 R8: H-Bounces[0,age_group_0_9] <= 2.966532822384261
 R9: H-Bounces[0,age_group_10_19] <= 2.934060921902055
 R10: H-Bounces[0,age_group_20_29] <= 9.315306640770588
 R11: H-Bounces[0,age_group_30_39] <= 33.20016061909929
 R12: H-Bounces[0,age_group_40_49] <= 38.62914967612205
 R13: H-Bounces[0,age_group_50_59] <= 54.38980503610244
 R14: H-Bounces[0,age_group_60_69] <= 48.1936134959255
 R15: H-Bounces[0,age_group_70_79] <= 39.53059680852233
 R16: H-Bounces[0,age_group_80_plus] <= 64.07548775406585
 R17: H-Bounces[1,age_group_0_9] <= 2.963569225637573
 R18: H-Bounces[1,age_group_10_19] <= 2.925986005083731
 R19: H-Bounces[1,age_group_20_29] <= 9.298163466128351
 R20: H-Bounces[1,age_group_30_39] <= 33.28343965133264
 R21: H-Bounces[1,age_group_40_49] <= 38.56787993192526
 R22: H-Bounces[1,age_group_50_59] <= 54.30404878109042
 R23: H-Bounces[1,age_group_60_69] <= 48.13151491115468
 R24: H-Bounces[1,age_group_70_79] <= 39.43005630802973
 R25: H-Bounces[1,age_group_80_plus] <= 64.04641645369115
 R26: H-Bounces[2,age_group_0_9] + 1.39542e-06 m-tests[0,age_group_0_9]
   <= 2.980745057022486
 R27: H-Bounces[2,age_group_10_19] + 1.42367e-06 m-tests[0,age_group_10_19]
   <= 2.933238112097748
 R28: H-Bounces[2,age_group_20_29] + 4.59672e-06 m-tests[0,age_group_20_29]
   <= 9.211198945239977
 R29: H-Bounces[2,age_group_30_39] + 1.59609e-05 m-tests[0,age_group_30_39]
   <= 33.26079496603948
 R30: H-Bounces[2,age_group_40_49] + 1.7383e-05 m-tests[0,age_group_40_49]
   <= 38.57382879734379
 R31: H-Bounces[2,age_group_50_59] + 2.66511e-05 m-tests[0,age_group_50_59]
   <= 54.53543350890111
 R32: H-Bounces[2,age_group_60_69] + 3.08915e-05 m-tests[0,age_group_60_69]
   <= 48.22966543045474
 R33: H-Bounces[2,age_group_70_79] + 3.76849e-05 m-tests[0,age_group_70_79]
   <= 39.95611419006246
 R34: H-Bounces[2,age_group_80_plus]
   + 5.15876e-05 m-tests[0,age_group_80_plus] <= 64.11349387282625
 R35: H-Bounces[3,age_group_0_9] + 1.04656e-06 m-tests[0,age_group_0_9]
   + 1.38421e-06 m-tests[1,age_group_0_9] <= 2.974142832688722
 R36: H-Bounces[3,age_group_10_19] + 1.06775e-06 m-tests[0,age_group_10_19]
   + 1.41046e-06 m-tests[1,age_group_10_19] <= 2.939366578834248
 R37: H-Bounces[3,age_group_20_29] + 3.44754e-06 m-tests[0,age_group_20_29]
   + 4.57615e-06 m-tests[1,age_group_20_29] <= 9.114120920661033
 R38: H-Bounces[3,age_group_30_39] + 1.19707e-05 m-tests[0,age_group_30_39]
   + 1.58446e-05 m-tests[1,age_group_30_39] <= 32.83704711636063
 R39: H-Bounces[3,age_group_40_49] + 1.30373e-05 m-tests[0,age_group_40_49]
   + 1.72522e-05 m-tests[1,age_group_40_49] <= 38.38618560479564
 R40: H-Bounces[3,age_group_50_59] + 1.99883e-05 m-tests[0,age_group_50_59]
   + 2.63316e-05 m-tests[1,age_group_50_59] <= 54.60388290157027
 R41: H-Bounces[3,age_group_60_69] + 2.31687e-05 m-tests[0,age_group_60_69]
   + 3.07319e-05 m-tests[1,age_group_60_69] <= 48.29001111488031
 R42: H-Bounces[3,age_group_70_79] + 2.82637e-05 m-tests[0,age_group_70_79]
   + 3.6829e-05 m-tests[1,age_group_70_79] <= 40.49234317159468
 R43: H-Bounces[3,age_group_80_plus]
   + 3.86907e-05 m-tests[0,age_group_80_plus]
   + 6.1164e-05 m-tests[1,age_group_80_plus] <= 64.80498485012811
 R44: ICU-Bounces[0,age_group_0_9] <= 0.8464913709117043
 R45: ICU-Bounces[0,age_group_10_19] <= 0.8372256101057277
 R46: ICU-Bounces[0,age_group_20_29] <= 1.210463574789398
 R47: ICU-Bounces[0,age_group_30_39] <= 6.276843684229235
 R48: ICU-Bounces[0,age_group_40_49] <= 11.02271366079575
 R49: ICU-Bounces[0,age_group_50_59] <= 20.73423506901143
 R50: ICU-Bounces[0,age_group_60_69] <= 21.45033664269516
 R51: ICU-Bounces[0,age_group_70_79] <= 13.10668256367785
 R52: ICU-Bounces[0,age_group_80_plus] <= 3.801088256597127
 R53: ICU-Bounces[1,age_group_0_9] <= 0.8456457173413126
 R54: ICU-Bounces[1,age_group_10_19] <= 0.834921456463481
 R55: ICU-Bounces[1,age_group_20_29] <= 1.208235930626848
 R56: ICU-Bounces[1,age_group_30_39] <= 6.292588471536136
 R57: ICU-Bounces[1,age_group_40_49] <= 11.00523052042083
 R58: ICU-Bounces[1,age_group_50_59] <= 20.70154345798475
 R59: ICU-Bounces[1,age_group_60_69] <= 21.42269738820179
 R60: ICU-Bounces[1,age_group_70_79] <= 13.0733475641803
 R61: ICU-Bounces[1,age_group_80_plus] <= 3.799363687930832
 R62: ICU-Bounces[2,age_group_0_9] + 3.98178e-07 m-tests[0,age_group_0_9]
   <= 0.8505467900501182
 R63: ICU-Bounces[2,age_group_10_19]
   + 4.06239e-07 m-tests[0,age_group_10_19] <= 0.8369908237605399
 R64: ICU-Bounces[2,age_group_20_29]
   + 5.97314e-07 m-tests[0,age_group_20_29] <= 1.196935456161127
 R65: ICU-Bounces[2,age_group_30_39]
   + 3.01758e-06 m-tests[0,age_group_30_39] <= 6.288307252794621
 R66: ICU-Bounces[2,age_group_40_49]
   + 4.96019e-06 m-tests[0,age_group_40_49] <= 11.00692801158139
 R67: ICU-Bounces[2,age_group_50_59]
   + 1.01598e-05 m-tests[0,age_group_50_59] <= 20.78975089565844
 R68: ICU-Bounces[2,age_group_60_69]
   + 1.37494e-05 m-tests[0,age_group_60_69] <= 21.46638287945095
 R69: ICU-Bounces[2,age_group_70_79]
   + 1.24947e-05 m-tests[0,age_group_70_79] <= 13.24776622280367
 R70: ICU-Bounces[2,age_group_80_plus]
   + 3.06028e-06 m-tests[0,age_group_80_plus] <= 3.803342856862574
 R71: ICU-Bounces[3,age_group_0_9] + 2.98634e-07 m-tests[0,age_group_0_9]
   + 3.94981e-07 m-tests[1,age_group_0_9] <= 0.8486628648546225
 R72: ICU-Bounces[3,age_group_10_19]
   + 3.04679e-07 m-tests[0,age_group_10_19]
   + 4.02471e-07 m-tests[1,age_group_10_19] <= 0.838739563626225
 R73: ICU-Bounces[3,age_group_20_29]
   + 4.47986e-07 m-tests[0,age_group_20_29]
   + 5.9464e-07 m-tests[1,age_group_20_29] <= 1.184320797600021
 R74: ICU-Bounces[3,age_group_30_39]
   + 2.26318e-06 m-tests[0,age_group_30_39]
   + 2.99558e-06 m-tests[1,age_group_30_39] <= 6.208193212248918
 R75: ICU-Bounces[3,age_group_40_49]
   + 3.72014e-06 m-tests[0,age_group_40_49]
   + 4.92287e-06 m-tests[1,age_group_40_49] <= 10.95338458131701
 R76: ICU-Bounces[3,age_group_50_59]
   + 7.61986e-06 m-tests[0,age_group_50_59]
   + 1.0038e-05 m-tests[1,age_group_50_59] <= 20.81584486302955
 R77: ICU-Bounces[3,age_group_60_69]
   + 1.03121e-05 m-tests[0,age_group_60_69]
   + 1.36784e-05 m-tests[1,age_group_60_69] <= 21.49324194130511
 R78: ICU-Bounces[3,age_group_70_79]
   + 9.37104e-06 m-tests[0,age_group_70_79]
   + 1.2211e-05 m-tests[1,age_group_70_79] <= 13.42555719004937
 R79: ICU-Bounces[3,age_group_80_plus]
   + 2.29521e-06 m-tests[0,age_group_80_plus]
   + 3.62838e-06 m-tests[1,age_group_80_plus] <= 3.844363508058448
 R80: m-tests[0,age_group_0_9] + m-tests[0,age_group_10_19]
   + m-tests[0,age_group_20_29] + m-tests[0,age_group_30_39]
   + m-tests[0,age_group_40_49] + m-tests[0,age_group_50_59]
   + m-tests[0,age_group_60_69] + m-tests[0,age_group_70_79]
   + m-tests[0,age_group_80_plus] <= 100000
 R81: m-tests[1,age_group_0_9] + m-tests[1,age_group_10_19]
   + m-tests[1,age_group_20_29] + m-tests[1,age_group_30_39]
   + m-tests[1,age_group_40_49] + m-tests[1,age_group_50_59]
   + m-tests[1,age_group_60_69] + m-tests[1,age_group_70_79]
   + m-tests[1,age_group_80_plus] <= 100000
 R82: m-tests[2,age_group_0_9] + m-tests[2,age_group_10_19]
   + m-tests[2,age_group_20_29] + m-tests[2,age_group_30_39]
   + m-tests[2,age_group_40_49] + m-tests[2,age_group_50_59]
   + m-tests[2,age_group_60_69] + m-tests[2,age_group_70_79]
   + m-tests[2,age_group_80_plus] <= 100000
 R83: m-tests[3,age_group_0_9] + m-tests[3,age_group_10_19]
   + m-tests[3,age_group_20_29] + m-tests[3,age_group_30_39]
   + m-tests[3,age_group_40_49] + m-tests[3,age_group_50_59]
   + m-tests[3,age_group_60_69] + m-tests[3,age_group_70_79]
   + m-tests[3,age_group_80_plus] <= 100000
 R84: a-tests[0,age_group_0_9] + a-tests[0,age_group_10_19]
   + a-tests[0,age_group_20_29] + a-tests[0,age_group_30_39]
   + a-tests[0,age_group_40_49] + a-tests[0,age_group_50_59]
   + a-tests[0,age_group_60_69] + a-tests[0,age_group_70_79]
   + a-tests[0,age_group_80_plus] <= 100000
 R85: a-tests[1,age_group_0_9] + a-tests[1,age_group_10_19]
   + a-tests[1,age_group_20_29] + a-tests[1,age_group_30_39]
   + a-tests[1,age_group_40_49] + a-tests[1,age_group_50_59]
   + a-tests[1,age_group_60_69] + a-tests[1,age_group_70_79]
   + a-tests[1,age_group_80_plus] <= 100000
 R86: a-tests[2,age_group_0_9] + a-tests[2,age_group_10_19]
   + a-tests[2,age_group_20_29] + a-tests[2,age_group_30_39]
   + a-tests[2,age_group_40_49] + a-tests[2,age_group_50_59]
   + a-tests[2,age_group_60_69] + a-tests[2,age_group_70_79]
   + a-tests[2,age_group_80_plus] <= 100000
 R87: a-tests[3,age_group_0_9] + a-tests[3,age_group_10_19]
   + a-tests[3,age_group_20_29] + a-tests[3,age_group_30_39]
   + a-tests[3,age_group_40_49] + a-tests[3,age_group_50_59]
   + a-tests[3,age_group_60_69] + a-tests[3,age_group_70_79]
   + a-tests[3,age_group_80_plus] <= 100000
Bounds
 a-tests[0,age_group_0_9] <= 100000
 a-tests[0,age_group_10_19] <= 100000
 a-tests[0,age_group_20_29] <= 100000
 a-tests[0,age_group_30_39] <= 100000
 a-tests[0,age_group_40_49] <= 100000
 a-tests[0,age_group_50_59] <= 100000
 a-tests[0,age_group_60_69] <= 100000
 a-tests[0,age_group_70_79] <= 100000
 a-tests[0,age_group_80_plus] <= 100000
 a-tests[1,age_group_0_9] <= 100000
 a-tests[1,age_group_10_19] <= 100000
 a-tests[1,age_group_20_29] <= 100000
 a-tests[1,age_group_30_39] <= 100000
 a-tests[1,age_group_40_49] <= 100000
 a-tests[1,age_group_50_59] <= 100000
 a-tests[1,age_group_60_69] <= 100000
 a-tests[1,age_group_70_79] <= 100000
 a-tests[1,age_group_80_plus] <= 100000
 a-tests[2,age_group_0_9] <= 100000
 a-tests[2,age_group_10_19] <= 100000
 a-tests[2,age_group_20_29] <= 100000
 a-tests[2,age_group_30_39] <= 100000
 a-tests[2,age_group_40_49] <= 100000
 a-tests[2,age_group_50_59] <= 100000
 a-tests[2,age_group_60_69] <= 100000
 a-tests[2,age_group_70_79] <= 100000
 a-tests[2,age_group_80_plus] <= 100000
 a-tests[3,age_group_0_9] <= 100000
 a-tests[3,age_group_10_19] <= 100000
 a-tests[3,age_group_20_29] <= 100000
 a-tests[3,age_group_30_39] <= 100000
 a-tests[3,age_group_40_49] <= 100000
 a-tests[3,age_group_50_59] <= 100000
 a-tests[3,age_group_60_69] <= 100000
 a-tests[3,age_group_70_79] <= 100000
 a-tests[3,age_group_80_plus] <= 100000
 m-tests[0,age_group_0_9] <= 100000
 m-tests[0,age_group_10_19] <= 100000
 m-tests[0,age_group_20_29] <= 100000
 m-tests[0,age_group_30_39] <= 100000
 m-tests[0,age_group_40_49] <= 100000
 m-tests[0,age_group_50_59] <= 100000
 m-tests[0,age_group_60_69] <= 100000
 m-tests[0,age_group_70_79] <= 100000
 m-tests[0,age_group_80_plus] <= 100000
 m-tests[1,age_group_0_9] <= 100000
 m-tests[1,age_group_10_19] <= 100000
 m-tests[1,age_group_20_29] <= 100000
 m-tests[1,age_group_30_39] <= 100000
 m-tests[1,age_group_40_49] <= 100000
 m-tests[1,age_group_50_59] <= 100000
 m-tests[1,age_group_60_69] <= 100000
 m-tests[1,age_group_70_79] <= 100000
 m-tests[1,age_group_80_plus] <= 100000
 m-tests[2,age_group_0_9] <= 100000
 m-tests[2,age_group_10_19] <= 100000
 m-tests[2,age_group_20_29] <= 100000
 m-tests[2,age_group_30_39] <= 100000
 m-tests[2,age_group_40_49] <= 100000
 m-tests[2,age_group_50_59] <= 100000
 m-tests[2,age_group_60_69] <= 100000
 m-tests[2,age_group_70_79] <= 100000
 m-tests[2,age_group_80_plus] <= 100000
 m-tests[3,age_group_0_9] <= 100000
 m-tests[3,age_group_10_19] <= 100000
 m-tests[3,age_group_20_29] <= 100000
 m-tests[3,age_group_30_39] <= 100000
 m-tests[3,age_group_40_49] <= 100000
 m-tests[3,age_group_50_59] <= 100000
 m-tests[3,age_group_60_69] <= 100000
 m-tests[3,age_group_70_79] <= 100000
 m-tests[3,age_group_80_plus] <= 100000
 Constant = 1
End
